90347466923704355255013,8,1,2,04,10,1,2,014,3,1,2,02,8,1,2,04,11,1,2,014,3,1,2,08,8,1,2,08,5,1,2,014,1,1,2,014,12,1,2,03,14,1,2,09,9,1,2,08,10,1,2,08,2,1,2,010,9,1,2,02,9,1,2,011,9,1,2,012,3,1,2,012,8,1,2,02,15,1,2,04,3,1,2,015,15,1,2,011,8,1,2,07,3,1,2,08,15,1,2,012,6,1,2,08,11,1,2,010,4,1,2,011,3,1,2,014,5,1,2,07,1,1,2,015,13,1,2,08,1,1,2,01,1,1,2,02,4,1,2,06,6,1,2,012,7,1,2,010,11,1,2,015,3,1,2,08,12,1,2,05,5,1,2,08,12,1,2,01,10,1,2,08,14,1,2,014,14,1,2,01,7,1,2,03,3,1,2,04,2,1,2,011,7,1,2,05,5,1,2,0